\ LP format - for model browsing. Use MPS format to capture full model detail.
Minimize
  0 B20(0) + 0 B22(0) + 0 B24(0) + 0 B25(0) + 0 B27(0) + 0 B28(0) + 0 B31(0)
   + 0 B33(0) + 0 B34(0) + 0 B35(0) + 0 B37(0) + 0 B39(0) + 0 B42(0)
   + 0 B44(0) + 0 B45(0) + 0 B46(0) + 0 B47(0) + 0 B48(0) + 0 B50(0)
   + 0 B51(0) + 0 B53(0) + 0 B54(0) + 0 B56(0) + 0 B57(0) + 0 B58(0)
   + 0 B59(0) + 0 B60(0) + 0 B61(0) + 0 B63(0) + 0 B64(0) + 0 B65(0)
   + 0 B67(0) + 0 B68(0) + 0 B69(0) + 0 B70(0) + 0 B71(0) + 0 B72(0)
   + 0 B74(0) + 0 B78(0) + 0 B80(0) + 0 B81(0) + 0 B82(0) + 0 B83(0)
   + 0 B85(0) + 0 B86(0) + 0 B90(0) + 0 B92(0) + 0 B93(0) + 0 B94(0)
   + 0 B95(0) + 0 B96(0) + 0 B97(0) + 0 B98(0) + 0 B99(0) + 0 B100(0)
   + 0 B103(0) + 0 B104(0) + 0 B105(0) + 0 B106(0) + 0 B107(0) + 0 B108(0)
   + 0 B109(0) + 0 B110(0) + 0 B111(0) + 0 B112(0) + 0 B114(0) + 0 B115(0)
   + 0 B116(0) + 0 B117(0) + 0 B118(0) + 0 B119(0) + 0 B120(0) + 0 B121(0)
   + 0 B122(0) + 0 B123(0) + 0 B124(0) + 0 B125(0) + 0 B126(0) + 0 B128(0)
   + 0 B129(0) + 0 B130(0) + 0 B131(0) + 0 B132(0) + 0 B133(0) + 0 B134(0)
   + 0 B135(0) + 0 B136(0) + 0 B137(0) + 0 B138(0) + 0 B139(0) + 0 B140(0)
   + 0 B141(0) + 0 B142(0) + 0 B143(0) + 0 B144(0) + 0 B145(0) + 0 B146(0)
   + 0 B147(0) + 0 B148(0) + 0 B149(0) + 0 B150(0) + 0 B151(0) + 0 B152(0)
   + 0 B153(0) + 0 B154(0) + 0 B155(0) + 0 B156(0) + 0 B157(0) + 0 B158(0)
   + 0 B159(0) + 0 B160(0) + 0 B161(0) + 0 B162(0) + 0 B163(0) + I184(1)
Subject To
 c0: B0(11) + B1(9) = 1
 c1: B2(9) + B3(11) = 1
 c2: B4(10) = 1
 c3: B5(9) = 1
 c4: B6(9) + B7(11) = 1
 c5: B8(10) + B9(12) = 1
 c6: B10(9) + B11(9) = 1
 c7: B12(9) = 1
 c8: B13(10) + B14(10) = 1
 c9: B15(9) + B16(9) = 1
 c10: B17(9) = 1
 c11: B18(10) + B19(10) = 1
 c12: - 1e+06 B0(11) + C164(12) <= 0
 c13: - 1e+06 B1(9) + C165(10) <= 0
 c14: - 1e+06 B2(9) + C166(10) <= 0
 c15: - 1e+06 B3(11) + C167(12) <= 0
 c16: - 1e+06 B4(10) + C168(10) <= 0
 c17: - 1e+06 B5(9) + C169(10) <= 0
 c18: - 1e+06 B6(9) + C170(10) <= 0
 c19: - 1e+06 B7(11) + C171(12) <= 0
 c20: - 1e+06 B8(10) + C172(10) <= 0
 c21: - 1e+06 B9(12) + C173(12) <= 0
 c22: - 1e+06 B10(9) + C174(10) <= 0
 c23: - 1e+06 B11(9) + C175(10) <= 0
 c24: - 1e+06 B12(9) + C176(10) <= 0
 c25: - 1e+06 B13(10) + C177(10) <= 0
 c26: - 1e+06 B14(10) + C178(10) <= 0
 c27: - 1e+06 B15(9) + C179(10) <= 0
 c28: - 1e+06 B16(9) + C180(10) <= 0
 c29: - 1e+06 B17(9) + C181(10) <= 0
 c30: - 1e+06 B18(10) + C182(10) <= 0
 c31: - 1e+06 B19(10) + C183(10) <= 0
 c32: - 1e+06 B0(11) - 1e+06 B3(11) - 1e+06 B21(2) + C164(12) - C167(12)
   >= -2.999714e+06
 c33: - 1e+06 B0(11) - 1e+06 B3(11) + 1e+06 B21(2) - C164(12) + C167(12)
   >= -1.999724e+06
 c34: - 1e+06 B1(9) - 1e+06 B5(9) - 1e+06 B23(2) + C165(10) - C169(10)
   >= -2.999662e+06
 c35: - 1e+06 B1(9) - 1e+06 B5(9) + 1e+06 B23(2) - C165(10) + C169(10)
   >= -1.999515e+06
 c36: - 1e+06 B0(11) - 1e+06 B10(9) - 1e+06 B26(4) + C164(12) - C174(10)
   >= -2.999683e+06
 c37: - 1e+06 B0(11) - 1e+06 B10(9) + 1e+06 B26(4) - C164(12) + C174(10)
   >= -1.99925e+06
 c38: - 1e+06 B1(9) - 1e+06 B11(9) - 1e+06 B26(4) + C165(10) - C175(10)
   >= -2.999116e+06
 c39: - 1e+06 B1(9) - 1e+06 B11(9) + 1e+06 B26(4) - C165(10) + C175(10)
   >= -1.999436e+06
 c40: - 1e+06 B0(11) - 1e+06 B16(9) - 1e+06 B29(2) + C164(12) - C180(10)
   >= -2.999565e+06
 c41: - 1e+06 B0(11) - 1e+06 B16(9) + 1e+06 B29(2) - C164(12) + C180(10)
   >= -1.999265e+06
 c42: - 1e+06 B1(9) - 1e+06 B17(9) - 1e+06 B30(2) + C165(10) - C181(10)
   >= -2.999395e+06
 c43: - 1e+06 B1(9) - 1e+06 B17(9) + 1e+06 B30(2) - C165(10) + C181(10)
   >= -1.999567e+06
 c44: - 1e+06 B0(11) - 1e+06 B3(11) - 1e+06 B32(2) - C164(12) + C167(12)
   >= -2.999724e+06
 c45: - 1e+06 B0(11) - 1e+06 B3(11) + 1e+06 B32(2) + C164(12) - C167(12)
   >= -1.999714e+06
 c46: - 1e+06 B2(9) - 1e+06 B6(9) - 1e+06 B36(2) + C166(10) - C170(10)
   >= -2.999831e+06
 c47: - 1e+06 B2(9) - 1e+06 B6(9) + 1e+06 B36(2) - C166(10) + C170(10)
   >= -1.99968e+06
 c48: - 1e+06 B3(11) - 1e+06 B10(9) - 1e+06 B38(2) + C167(12) - C174(10)
   >= -2.999474e+06
 c49: - 1e+06 B3(11) - 1e+06 B10(9) + 1e+06 B38(2) - C167(12) + C174(10)
   >= -1.999678e+06
 c50: - 1e+06 B2(9) - 1e+06 B14(10) - 1e+06 B40(2) + C166(10) - C178(10)
   >= -2.999575e+06
 c51: - 1e+06 B2(9) - 1e+06 B14(10) + 1e+06 B40(2) - C166(10) + C178(10)
   >= -1.999205e+06
 c52: - 1e+06 B3(11) - 1e+06 B16(9) - 1e+06 B41(2) + C167(12) - C180(10)
   >= -2.999549e+06
 c53: - 1e+06 B3(11) - 1e+06 B16(9) + 1e+06 B41(2) - C167(12) + C180(10)
   >= -1.999532e+06
 c54: - 1e+06 B2(9) - 1e+06 B19(10) - 1e+06 B43(2) + C166(10) - C183(10)
   >= -2.999755e+06
 c55: - 1e+06 B2(9) - 1e+06 B19(10) + 1e+06 B43(2) - C166(10) + C183(10)
   >= -1.999578e+06
 c56: - 1e+06 B4(10) - 1e+06 B8(10) - 1e+06 B49(2) + C168(10) - C172(10)
   >= -2.999345e+06
 c57: - 1e+06 B4(10) - 1e+06 B8(10) + 1e+06 B49(2) - C168(10) + C172(10)
   >= -1.999739e+06
 c58: - 1e+06 B4(10) - 1e+06 B13(10) - 1e+06 B52(2) + C168(10) - C177(10)
   >= -2.999679e+06
 c59: - 1e+06 B4(10) - 1e+06 B13(10) + 1e+06 B52(2) - C168(10) + C177(10)
   >= -1.999722e+06
 c60: - 1e+06 B4(10) - 1e+06 B18(10) - 1e+06 B55(2) + C168(10) - C182(10)
   >= -2.999537e+06
 c61: - 1e+06 B4(10) - 1e+06 B18(10) + 1e+06 B55(2) - C168(10) + C182(10)
   >= -1.999574e+06
 c62: - 1e+06 B5(9) - 1e+06 B11(9) - 1e+06 B62(2) + C169(10) - C175(10)
   >= -2.999504e+06
 c63: - 1e+06 B5(9) - 1e+06 B11(9) + 1e+06 B62(2) - C169(10) + C175(10)
   >= -1.99939e+06
 c64: - 1e+06 B5(9) - 1e+06 B17(9) - 1e+06 B66(2) + C169(10) - C181(10)
   >= -2.999027e+06
 c65: - 1e+06 B5(9) - 1e+06 B17(9) + 1e+06 B66(2) - C169(10) + C181(10)
   >= -1.999225e+06
 c66: - 1e+06 B7(11) - 1e+06 B9(12) - 1e+06 B73(2) + C171(12) - C173(12)
   >= -2.999379e+06
 c67: - 1e+06 B7(11) - 1e+06 B9(12) + 1e+06 B73(2) - C171(12) + C173(12)
   >= -1.999776e+06
 c68: - 1e+06 B7(11) - 1e+06 B12(9) - 1e+06 B75(2) + C171(12) - C176(10)
   >= -2.999649e+06
 c69: - 1e+06 B7(11) - 1e+06 B12(9) + 1e+06 B75(2) - C171(12) + C176(10)
   >= -1.999718e+06
 c70: - 1e+06 B6(9) - 1e+06 B14(10) - 1e+06 B76(2) + C170(10) - C178(10)
   >= -2.999575e+06
 c71: - 1e+06 B6(9) - 1e+06 B14(10) + 1e+06 B76(2) - C170(10) + C178(10)
   >= -1.999089e+06
 c72: - 1e+06 B7(11) - 1e+06 B15(9) - 1e+06 B77(2) + C171(12) - C179(10)
   >= -2.999614e+06
 c73: - 1e+06 B7(11) - 1e+06 B15(9) + 1e+06 B77(2) - C171(12) + C179(10)
   >= -1.999826e+06
 c74: - 1e+06 B6(9) - 1e+06 B19(10) - 1e+06 B79(2) + C170(10) - C183(10)
   >= -2.99952e+06
 c75: - 1e+06 B6(9) - 1e+06 B19(10) + 1e+06 B79(2) - C170(10) + C183(10)
   >= -1.999481e+06
 c76: - 1e+06 B7(11) - 1e+06 B9(12) - 1e+06 B84(2) - C171(12) + C173(12)
   >= -2.999776e+06
 c77: - 1e+06 B7(11) - 1e+06 B9(12) + 1e+06 B84(2) + C171(12) - C173(12)
   >= -1.999379e+06
 c78: - 1e+06 B9(12) - 1e+06 B12(9) - 1e+06 B87(2) + C173(12) - C176(10)
   >= -2.999405e+06
 c79: - 1e+06 B9(12) - 1e+06 B12(9) + 1e+06 B87(2) - C173(12) + C176(10)
   >= -1.999394e+06
 c80: - 1e+06 B8(10) - 1e+06 B13(10) - 1e+06 B88(2) + C172(10) - C177(10)
   >= -2.99971e+06
 c81: - 1e+06 B8(10) - 1e+06 B13(10) + 1e+06 B88(2) - C172(10) + C177(10)
   >= -1.999608e+06
 c82: - 1e+06 B9(12) - 1e+06 B15(9) - 1e+06 B89(2) + C173(12) - C179(10)
   >= -2.998969e+06
 c83: - 1e+06 B9(12) - 1e+06 B15(9) + 1e+06 B89(2) - C173(12) + C179(10)
   >= -1.999265e+06
 c84: - 1e+06 B8(10) - 1e+06 B18(10) - 1e+06 B91(2) + C172(10) - C182(10)
   >= -2.999535e+06
 c85: - 1e+06 B8(10) - 1e+06 B18(10) + 1e+06 B91(2) - C172(10) + C182(10)
   >= -1.999183e+06
 c86: - 1e+06 B10(9) - 1e+06 B16(9) - 1e+06 B101(2) + C174(10) - C180(10)
   >= -2.999555e+06
 c87: - 1e+06 B10(9) - 1e+06 B16(9) + 1e+06 B101(2) - C174(10) + C180(10)
   >= -1.999634e+06
 c88: - 1e+06 B11(9) - 1e+06 B17(9) - 1e+06 B102(2) + C175(10) - C181(10)
   >= -2.999673e+06
 c89: - 1e+06 B11(9) - 1e+06 B17(9) + 1e+06 B102(2) - C175(10) + C181(10)
   >= -1.999508e+06
 c90: - 1e+06 B12(9) - 1e+06 B15(9) - 1e+06 B113(2) + C176(10) - C179(10)
   >= -2.999471e+06
 c91: - 1e+06 B12(9) - 1e+06 B15(9) + 1e+06 B113(2) - C176(10) + C179(10)
   >= -1.999452e+06
 c92: - 1e+06 B13(10) - 1e+06 B18(10) - 1e+06 B127(4) + C177(10) - C182(10)
   >= -2.999168e+06
 c93: - 1e+06 B13(10) - 1e+06 B18(10) + 1e+06 B127(4) - C177(10) + C182(10)
   >= -1.999633e+06
 c94: - 1e+06 B14(10) - 1e+06 B19(10) - 1e+06 B127(4) + C178(10) - C183(10)
   >= -2.999853e+06
 c95: - 1e+06 B14(10) - 1e+06 B19(10) + 1e+06 B127(4) - C178(10) + C183(10)
   >= -1.999785e+06
 c96: C164(12) >= 0
 c97: C165(10) >= 0
 c98: C166(10) >= 0
 c99: C167(12) >= 0
 c100: C168(10) >= 0
 c101: - 480 B4(10) + C168(10) >= 0
 c102: C169(10) >= 0
 c103: C170(10) >= 0
 c104: C171(12) >= 0
 c105: C172(10) >= 0
 c106: - 480 B8(10) + C172(10) >= 0
 c107: C173(12) >= 0
 c108: - 480 B9(12) + C173(12) >= 0
 c109: C174(10) >= 0
 c110: C175(10) >= 0
 c111: C176(10) >= 0
 c112: C177(10) >= 0
 c113: - 480 B13(10) + C177(10) >= 0
 c114: C178(10) >= 0
 c115: - 480 B14(10) + C178(10) >= 0
 c116: C179(10) >= 0
 c117: C180(10) >= 0
 c118: C181(10) >= 0
 c119: C182(10) >= 0
 c120: - 480 B18(10) + C182(10) >= 0
 c121: C183(10) >= 0
 c122: - 480 B19(10) + C183(10) >= 0
 c123: - 130 B2(9) - 140 B3(11) + C164(12) + C165(10) - C166(10) - C167(12)
   >= 0
 c124: - 147 B4(10) + C166(10) + C167(12) - C168(10) >= 0
 c125: - 66 B6(9) - 87 B7(11) + C169(10) - C170(10) - C171(12) >= 0
 c126: - 214 B8(10) - 150 B9(12) + C170(10) + C171(12) - C172(10)
   - C173(12) >= 0
 c127: - 180 B12(9) + C174(10) + C175(10) - C176(10) >= 0
 c128: - 87 B13(10) - 62 B14(10) + C176(10) - C177(10) - C178(10) >= 0
 c129: - 173 B17(9) + C179(10) + C180(10) - C181(10) >= 0
 c130: - 87 B18(10) - 65 B19(10) + C181(10) - C182(10) - C183(10) >= 0
 c131: - 150 B0(11) - 160 B1(9) - 178 B5(9) - 190 B10(9) - 100 B11(9)
   - 136 B15(9) - 145 B16(9) - C164(12) - C165(10) - C169(10) - C174(10)
   - C175(10) - C179(10) - C180(10) + I184(1) >= 0
Bounds
Binaries
 B0(11) B1(9) B2(9) B3(11) B4(10) B5(9) B6(9) B7(11) B8(10) B9(12) B10(9)
 B11(9) B12(9) B13(10) B14(10) B15(9) B16(9) B17(9) B18(10) B19(10) B20(0)
 B21(2) B22(0) B23(2) B24(0) B25(0) B26(4) B27(0) B28(0) B29(2) B30(2)
 B31(0) B32(2) B33(0) B34(0) B35(0) B36(2) B37(0) B38(2) B39(0) B40(2)
 B41(2) B42(0) B43(2) B44(0) B45(0) B46(0) B47(0) B48(0) B49(2) B50(0)
 B51(0) B52(2) B53(0) B54(0) B55(2) B56(0) B57(0) B58(0) B59(0) B60(0)
 B61(0) B62(2) B63(0) B64(0) B65(0) B66(2) B67(0) B68(0) B69(0) B70(0)
 B71(0) B72(0) B73(2) B74(0) B75(2) B76(2) B77(2) B78(0) B79(2) B80(0)
 B81(0) B82(0) B83(0) B84(2) B85(0) B86(0) B87(2) B88(2) B89(2) B90(0)
 B91(2) B92(0) B93(0) B94(0) B95(0) B96(0) B97(0) B98(0) B99(0) B100(0)
 B101(2) B102(2) B103(0) B104(0) B105(0) B106(0) B107(0) B108(0) B109(0)
 B110(0) B111(0) B112(0) B113(2) B114(0) B115(0) B116(0) B117(0) B118(0)
 B119(0) B120(0) B121(0) B122(0) B123(0) B124(0) B125(0) B126(0) B127(4)
 B128(0) B129(0) B130(0) B131(0) B132(0) B133(0) B134(0) B135(0) B136(0)
 B137(0) B138(0) B139(0) B140(0) B141(0) B142(0) B143(0) B144(0) B145(0)
 B146(0) B147(0) B148(0) B149(0) B150(0) B151(0) B152(0) B153(0) B154(0)
 B155(0) B156(0) B157(0) B158(0) B159(0) B160(0) B161(0) B162(0) B163(0)
Generals
 I184(1)
End
